; PUSH cw_2 SWAP2 POP PUSH cw_3 SWAP1 POP => EQ POP PUSH cw_2 PUSH cw_3
(set-option :produce-proofs true)
; 
(set-info :status unknown)
(declare-fun storage_t ((_ BitVec 256) (_ BitVec 256) (_ BitVec 256) (_ BitVec 256) Int (_ BitVec 256)) (_ BitVec 256))
(declare-fun w_3 () (_ BitVec 256))
(declare-fun w_2 () (_ BitVec 256))
(declare-fun storage_s ((_ BitVec 256) (_ BitVec 256) (_ BitVec 256) (_ BitVec 256) Int (_ BitVec 256)) (_ BitVec 256))
(declare-fun exc_halt_t (Int) Bool)
(declare-fun exc_halt_s (Int) Bool)
(declare-fun sc_t (Int) (_ BitVec 6))
(declare-fun stack_t ((_ BitVec 256) (_ BitVec 256) (_ BitVec 256) (_ BitVec 256) Int (_ BitVec 6)) (_ BitVec 256))
(declare-fun stack_s ((_ BitVec 256) (_ BitVec 256) (_ BitVec 256) (_ BitVec 256) Int (_ BitVec 6)) (_ BitVec 256))
(declare-fun sc_s (Int) (_ BitVec 6))
(declare-fun used_gas_t ((_ BitVec 256) (_ BitVec 256) (_ BitVec 256) (_ BitVec 256) Int) Int)
(declare-fun used_gas_s ((_ BitVec 256) (_ BitVec 256) (_ BitVec 256) (_ BitVec 256) Int) Int)
(assert
 (exists ((x_0 (_ BitVec 256)) (x_1 (_ BitVec 256)) )(let (($x5395 (forall ((w (_ BitVec 256)) )(let ((?x8683 (storage_t x_0 x_1 w_2 w_3 4 w)))
 (let ((?x2084 (storage_s x_0 x_1 w_2 w_3 6 w)))
 (= ?x2084 ?x8683))))
 ))
 (let (($x7854 (exc_halt_t 4)))
 (let (($x772 (exc_halt_s 6)))
 (let (($x4404 (= $x772 $x7854)))
 (let (($x6153 (forall ((n (_ BitVec 6)) )(let ((?x4818 (sc_t 4)))
 (let (($x8757 (bvsle ?x4818 n)))
 (let ((?x9410 (stack_t x_0 x_1 w_2 w_3 4 n)))
 (let ((?x990 (stack_s x_0 x_1 w_2 w_3 6 n)))
 (let (($x8463 (= ?x990 ?x9410)))
 (or $x8463 $x8757)))))))
 ))
 (let ((?x4818 (sc_t 4)))
 (let ((?x926 (sc_s 6)))
 (let (($x7899 (= ?x926 ?x4818)))
 (let ((?x8902 (used_gas_t x_0 x_1 w_2 w_3 0)))
 (let ((?x5982 (used_gas_s x_0 x_1 w_2 w_3 0)))
 (let (($x11427 (= ?x5982 ?x8902)))
 (let (($x8556 (forall ((w (_ BitVec 256)) )(let ((?x942 (storage_t x_0 x_1 w_2 w_3 0 w)))
 (let ((?x10993 (storage_s x_0 x_1 w_2 w_3 0 w)))
 (= ?x10993 ?x942))))
 ))
 (let (($x56 (exc_halt_t 0)))
 (let (($x57 (exc_halt_s 0)))
 (let (($x58 (= $x57 $x56)))
 (let (($x2486 (forall ((n (_ BitVec 6)) )(let ((?x5032 (stack_t x_0 x_1 w_2 w_3 0 n)))
 (let ((?x6761 (stack_s x_0 x_1 w_2 w_3 0 n)))
 (let (($x9422 (= ?x6761 ?x5032)))
 (let ((?x63 (sc_t 0)))
 (let (($x4813 (bvsle ?x63 n)))
 (or $x4813 $x9422)))))))
 ))
 (let ((?x63 (sc_t 0)))
 (let ((?x72 (sc_s 0)))
 (let (($x73 (= ?x72 ?x63)))
 (let (($x6783 (exc_halt_t 3)))
 (let (($x8527 (or $x6783 (not (= ((_ extract 6 6) (bvadd (_ bv1 7) (concat (_ bv0 1) (sc_t 3)))) (_ bv0 1))))))
 (let (($x284 (forall ((w (_ BitVec 256)) )(let ((?x10512 (storage_t x_0 x_1 w_2 w_3 3 w)))
 (let ((?x8683 (storage_t x_0 x_1 w_2 w_3 4 w)))
 (= ?x8683 ?x10512))))
 ))
 (let (($x4255 (forall ((n (_ BitVec 6)) )(let ((?x3316 (stack_t x_0 x_1 w_2 w_3 3 n)))
 (let ((?x9410 (stack_t x_0 x_1 w_2 w_3 4 n)))
 (or (= ?x9410 ?x3316) (bvsle (sc_t 3) n)))))
 ))
 (let (($x1735 (= (used_gas_t x_0 x_1 w_2 w_3 4) (+ 3 (used_gas_t x_0 x_1 w_2 w_3 3)))))
 (let (($x11620 (not (= ((_ extract 6 6) (bvadd (_ bv1 7) (concat (_ bv0 1) (sc_t 2)))) (_ bv0 1)))))
 (let (($x2163 (exc_halt_t 2)))
 (let (($x7762 (forall ((w (_ BitVec 256)) )(let ((?x4324 (storage_t x_0 x_1 w_2 w_3 2 w)))
 (let ((?x10512 (storage_t x_0 x_1 w_2 w_3 3 w)))
 (= ?x10512 ?x4324))))
 ))
 (let (($x2273 (forall ((n (_ BitVec 6)) )(let ((?x9023 (stack_t x_0 x_1 w_2 w_3 2 n)))
 (let ((?x3316 (stack_t x_0 x_1 w_2 w_3 3 n)))
 (let ((?x2714 (sc_t 2)))
 (let (($x828 (bvsle ?x2714 n)))
 (or $x828 (= ?x3316 ?x9023)))))))
 ))
 (let ((?x6438 (sc_t 3)))
 (let (($x1811 (= ?x6438 (bvadd (_ bv1 6) (sc_t 2)))))
 (let ((?x1445 (used_gas_t x_0 x_1 w_2 w_3 3)))
 (let (($x11675 (= $x2163 (or (exc_halt_t 1) (not (bvsle (_ bv0 6) (bvadd (_ bv63 6) (sc_t 1))))))))
 (let (($x1361 (forall ((w (_ BitVec 256)) )(let ((?x5639 (storage_t x_0 x_1 w_2 w_3 1 w)))
 (let ((?x4324 (storage_t x_0 x_1 w_2 w_3 2 w)))
 (= ?x4324 ?x5639))))
 ))
 (let (($x4966 (forall ((n (_ BitVec 6)) )(let ((?x7154 (sc_t 1)))
 (let ((?x2437 (bvadd (_ bv63 6) ?x7154)))
 (let (($x10243 (bvsle ?x2437 n)))
 (let ((?x8942 (stack_t x_0 x_1 w_2 w_3 1 n)))
 (let ((?x9023 (stack_t x_0 x_1 w_2 w_3 2 n)))
 (or (= ?x9023 ?x8942) $x10243)))))))
 ))
 (let ((?x605 (used_gas_t x_0 x_1 w_2 w_3 2)))
 (let (($x2219 (forall ((w (_ BitVec 256)) )(let ((?x942 (storage_t x_0 x_1 w_2 w_3 0 w)))
 (let ((?x5639 (storage_t x_0 x_1 w_2 w_3 1 w)))
 (= ?x5639 ?x942))))
 ))
 (let (($x9566 (forall ((n (_ BitVec 6)) )(let ((?x5032 (stack_t x_0 x_1 w_2 w_3 0 n)))
 (let ((?x8942 (stack_t x_0 x_1 w_2 w_3 1 n)))
 (let ((?x63 (sc_t 0)))
 (let ((?x736 (bvadd (_ bv62 6) ?x63)))
 (let (($x2073 (bvsle ?x736 n)))
 (or $x2073 (= ?x8942 ?x5032))))))))
 ))
 (let ((?x7312 (bvadd (_ bv63 6) ?x63)))
 (let ((?x7154 (sc_t 1)))
 (let (($x10046 (= ?x7154 ?x7312)))
 (let (($x10017 (= (stack_t x_0 x_1 w_2 w_3 0 ?x7312) (stack_t x_0 x_1 w_2 w_3 0 (bvadd (_ bv62 6) ?x63)))))
 (let (($x6769 (= (stack_t x_0 x_1 w_2 w_3 1 (bvadd (_ bv63 6) ?x7154)) (ite $x10017 (_ bv1 256) (_ bv0 256)))))
 (let (($x862 (= $x772 (or (exc_halt_s 5) (not (bvsle (_ bv0 6) (bvadd (_ bv63 6) (sc_s 5))))))))
 (let (($x2145 (forall ((w (_ BitVec 256)) )(let ((?x1570 (storage_s x_0 x_1 w_2 w_3 5 w)))
 (let ((?x2084 (storage_s x_0 x_1 w_2 w_3 6 w)))
 (= ?x2084 ?x1570))))
 ))
 (let (($x4481 (forall ((n (_ BitVec 6)) )(let ((?x2002 (stack_s x_0 x_1 w_2 w_3 5 n)))
 (let ((?x990 (stack_s x_0 x_1 w_2 w_3 6 n)))
 (or (bvsle (bvadd (_ bv63 6) (sc_s 5)) n) (= ?x990 ?x2002)))))
 ))
 (let (($x8698 (= (used_gas_s x_0 x_1 w_2 w_3 6) (+ 2 (used_gas_s x_0 x_1 w_2 w_3 5)))))
 (let (($x11317 (exc_halt_s 5)))
 (let (($x6308 (= $x11317 (or (exc_halt_s 4) (not (bvsle (_ bv0 6) (bvadd (_ bv62 6) (sc_s 4))))))))
 (let (($x5101 (forall ((w (_ BitVec 256)) )(let ((?x8887 (storage_s x_0 x_1 w_2 w_3 4 w)))
 (let ((?x1570 (storage_s x_0 x_1 w_2 w_3 5 w)))
 (= ?x1570 ?x8887))))
 ))
 (let (($x10458 (forall ((n (_ BitVec 6)) )(let ((?x4305 (sc_s 4)))
 (let ((?x2554 (bvadd (_ bv62 6) ?x4305)))
 (let (($x11551 (bvsle ?x2554 n)))
 (let ((?x4705 (stack_s x_0 x_1 w_2 w_3 4 n)))
 (let ((?x2002 (stack_s x_0 x_1 w_2 w_3 5 n)))
 (or (= ?x2002 ?x4705) $x11551)))))))
 ))
 (let ((?x7328 (used_gas_s x_0 x_1 w_2 w_3 5)))
 (let (($x1059 (= (stack_s x_0 x_1 w_2 w_3 5 (bvadd (_ bv62 6) (sc_s 5))) (stack_s x_0 x_1 w_2 w_3 4 (bvadd (_ bv63 6) (sc_s 4))))))
 (let (($x1889 (= (stack_s x_0 x_1 w_2 w_3 5 (bvadd (_ bv63 6) (sc_s 5))) (stack_s x_0 x_1 w_2 w_3 4 (bvadd (_ bv62 6) (sc_s 4))))))
 (let (($x292 (exc_halt_s 3)))
 (let (($x4774 (or $x292 (not (= ((_ extract 6 6) (bvadd (_ bv1 7) (concat (_ bv0 1) (sc_s 3)))) (_ bv0 1))))))
 (let (($x7172 (exc_halt_s 4)))
 (let (($x7126 (forall ((w (_ BitVec 256)) )(let ((?x5701 (storage_s x_0 x_1 w_2 w_3 3 w)))
 (let ((?x8887 (storage_s x_0 x_1 w_2 w_3 4 w)))
 (= ?x8887 ?x5701))))
 ))
 (let (($x5273 (forall ((n (_ BitVec 6)) )(let ((?x10559 (stack_s x_0 x_1 w_2 w_3 3 n)))
 (let ((?x4705 (stack_s x_0 x_1 w_2 w_3 4 n)))
 (or (bvsle (sc_s 3) n) (= ?x4705 ?x10559)))))
 ))
 (let ((?x2246 (used_gas_s x_0 x_1 w_2 w_3 4)))
 (let (($x8248 (= $x292 (or (exc_halt_s 2) (not (bvsle (_ bv0 6) (bvadd (_ bv63 6) (sc_s 2))))))))
 (let (($x674 (forall ((w (_ BitVec 256)) )(let ((?x11383 (storage_s x_0 x_1 w_2 w_3 2 w)))
 (let ((?x5701 (storage_s x_0 x_1 w_2 w_3 3 w)))
 (= ?x5701 ?x11383))))
 ))
 (let (($x2680 (forall ((n (_ BitVec 6)) )(let ((?x218 (sc_s 2)))
 (let ((?x616 (bvadd (_ bv63 6) ?x218)))
 (let (($x4640 (bvsle ?x616 n)))
 (let ((?x11744 (stack_s x_0 x_1 w_2 w_3 2 n)))
 (let ((?x10559 (stack_s x_0 x_1 w_2 w_3 3 n)))
 (or (= ?x10559 ?x11744) $x4640)))))))
 ))
 (let ((?x218 (sc_s 2)))
 (let ((?x616 (bvadd (_ bv63 6) ?x218)))
 (let ((?x275 (sc_s 3)))
 (let (($x4670 (= ?x275 ?x616)))
 (let ((?x7546 (used_gas_s x_0 x_1 w_2 w_3 3)))
 (let (($x247 (exc_halt_s 2)))
 (let (($x6405 (= $x247 (or (exc_halt_s 1) (not (bvsle (_ bv0 6) (bvadd (_ bv61 6) (sc_s 1))))))))
 (let (($x2292 (forall ((w (_ BitVec 256)) )(let ((?x1367 (storage_s x_0 x_1 w_2 w_3 1 w)))
 (let ((?x11383 (storage_s x_0 x_1 w_2 w_3 2 w)))
 (= ?x11383 ?x1367))))
 ))
 (let (($x9396 (forall ((n (_ BitVec 6)) )(let ((?x154 (sc_s 1)))
 (let ((?x7143 (bvadd (_ bv61 6) ?x154)))
 (let (($x10584 (bvsle ?x7143 n)))
 (let ((?x4772 (stack_s x_0 x_1 w_2 w_3 1 n)))
 (let ((?x11744 (stack_s x_0 x_1 w_2 w_3 2 n)))
 (or (= ?x11744 ?x4772) $x10584)))))))
 ))
 (let ((?x154 (sc_s 1)))
 (let (($x10978 (= ?x218 ?x154)))
 (let ((?x2713 (used_gas_s x_0 x_1 w_2 w_3 2)))
 (let (($x3450 (= (stack_s x_0 x_1 w_2 w_3 2 (bvadd (_ bv62 6) ?x218)) (stack_s x_0 x_1 w_2 w_3 1 (bvadd (_ bv62 6) ?x154)))))
 (let (($x2826 (= (stack_s x_0 x_1 w_2 w_3 2 (bvadd (_ bv61 6) ?x218)) (stack_s x_0 x_1 w_2 w_3 1 (bvadd (_ bv63 6) ?x154)))))
 (let (($x503 (= (stack_s x_0 x_1 w_2 w_3 2 ?x616) (stack_s x_0 x_1 w_2 w_3 1 (bvadd (_ bv61 6) ?x154)))))
 (let (($x189 (exc_halt_s 1)))
 (let (($x8008 (= $x189 (or $x57 (not (= ((_ extract 6 6) (bvadd (_ bv1 7) (concat (_ bv0 1) ?x72))) (_ bv0 1)))))))
 (let (($x2286 (forall ((w (_ BitVec 256)) )(let ((?x10993 (storage_s x_0 x_1 w_2 w_3 0 w)))
 (let ((?x1367 (storage_s x_0 x_1 w_2 w_3 1 w)))
 (= ?x1367 ?x10993))))
 ))
 (let (($x2334 (forall ((n (_ BitVec 6)) )(let ((?x72 (sc_s 0)))
 (let (($x10187 (bvsle ?x72 n)))
 (let ((?x6761 (stack_s x_0 x_1 w_2 w_3 0 n)))
 (let ((?x4772 (stack_s x_0 x_1 w_2 w_3 1 n)))
 (or (= ?x4772 ?x6761) $x10187))))))
 ))
 (let (($x2373 (= ?x154 (bvadd (_ bv1 6) ?x72))))
 (let (($x10561 (forall ((w (_ BitVec 256)) )(let ((?x10993 (storage_s x_0 x_1 w_2 w_3 0 w)))
 (= ?x10993 (_ bv0 256))))
 ))
 (let (($x7527 (= ?x5982 0)))
 (let (($x5107 (not $x57)))
 (let (($x351 (= (stack_s x_0 x_1 w_2 w_3 0 (_ bv1 6)) x_1)))
 (let (($x1031 (= (stack_s x_0 x_1 w_2 w_3 0 (_ bv0 6)) x_0)))
 (let (($x11128 (= ?x72 (_ bv2 6))))
 (and $x11128 $x1031 $x351 $x5107 $x7527 $x10561 (= (stack_s x_0 x_1 w_2 w_3 1 ?x72) w_2) (= (used_gas_s x_0 x_1 w_2 w_3 1) (+ 3 ?x5982)) $x2373 $x2334 $x2286 $x8008 $x503 $x2826 $x3450 (= ?x2713 (+ 3 (used_gas_s x_0 x_1 w_2 w_3 1))) $x10978 $x9396 $x2292 $x6405 (= ?x7546 (+ 2 ?x2713)) $x4670 $x2680 $x674 $x8248 (= (stack_s x_0 x_1 w_2 w_3 4 ?x275) w_3) (= ?x2246 (+ 3 ?x7546)) (= (sc_s 4) (bvadd (_ bv1 6) ?x275)) $x5273 $x7126 (= $x7172 $x4774) $x1889 $x1059 (= ?x7328 (+ 3 ?x2246)) (= (sc_s 5) (sc_s 4)) $x10458 $x5101 $x6308 $x8698 (= ?x926 (bvadd (_ bv63 6) (sc_s 5))) $x4481 $x2145 $x862 $x6769 (= (used_gas_t x_0 x_1 w_2 w_3 1) (+ 3 ?x8902)) $x10046 $x9566 $x2219 (= (exc_halt_t 1) (or $x56 (not (bvsle (_ bv0 6) (bvadd (_ bv62 6) ?x63))))) (= ?x605 (+ 2 (used_gas_t x_0 x_1 w_2 w_3 1))) (= (sc_t 2) (bvadd (_ bv63 6) ?x7154)) $x4966 $x1361 $x11675 (= (stack_t x_0 x_1 w_2 w_3 3 (sc_t 2)) w_2) (= ?x1445 (+ 3 ?x605)) $x1811 $x2273 $x7762 (= $x6783 (or $x2163 $x11620)) (= (stack_t x_0 x_1 w_2 w_3 4 ?x6438) w_3) $x1735 (= ?x4818 (bvadd (_ bv1 6) ?x6438)) $x4255 $x284 (= $x7854 $x8527) $x73 $x2486 $x58 $x8556 $x11427 (not (and $x7899 $x6153 $x4404 $x5395))))))))))))))))))))))))))))))))))))))))))))))))))))))))))))))))))))))))))))))))))))))))))))
 )
(check-sat)
(get-proof)
